LOC = { L1, L2, L3, L4, L5, L6, L7, L8, L9, L10, L11, L12, L13, L14, L15, L16, L17, L18, L19, L20, L21, L22, L23, L24, L25, L26, L27, L28, L29, L30, L31, L32, L33, L34, L35, L36 };
base = L1;
d = [|                  to_enum(LOC,1): to_enum(LOC,2): to_enum(LOC,3): to_enum(LOC,4): to_enum(LOC,5): to_enum(LOC,6): to_enum(LOC,7): to_enum(LOC,8): to_enum(LOC,9): to_enum(LOC,10): to_enum(LOC,11): to_enum(LOC,12): to_enum(LOC,13): to_enum(LOC,14): to_enum(LOC,15): to_enum(LOC,16): to_enum(LOC,17): to_enum(LOC,18): to_enum(LOC,19): to_enum(LOC,20): to_enum(LOC,21): to_enum(LOC,22): to_enum(LOC,23): to_enum(LOC,24): to_enum(LOC,25): to_enum(LOC,26): to_enum(LOC,27): to_enum(LOC,28): to_enum(LOC,29): to_enum(LOC,30): to_enum(LOC,31): to_enum(LOC,32): to_enum(LOC,33): to_enum(LOC,34): to_enum(LOC,35): to_enum(LOC,36): 
 |  to_enum(LOC,1):              0,              1,              2,              3,              4,              5,              1,              2,              3,               4,               5,               6,               2,               3,               3,               4,               5,               6,               3,               4,               4,               5,               5,               6,               4,               5,               5,               5,               6,               7,               5,               6,               6,               6,               7,               8
 |  to_enum(LOC,2):              1,              0,              1,              2,              3,              4,              2,              1,              2,               3,               4,               5,               3,               2,               3,               3,               4,               5,               4,               3,               4,               4,               5,               5,               5,               4,               5,               5,               5,               6,               6,               5,               6,               6,               6,               7
 |  to_enum(LOC,3):              2,              1,              0,              1,              2,              3,              3,              2,              1,               2,               3,               4,               3,               3,               2,               3,               3,               4,               4,               4,               3,               4,               4,               5,               5,               5,               4,               5,               5,               5,               6,               6,               5,               6,               6,               6
 |  to_enum(LOC,4):              3,              2,              1,              0,              1,              2,              4,              3,              2,               1,               2,               3,               4,               3,               3,               2,               3,               3,               5,               4,               4,               3,               4,               4,               5,               5,               5,               4,               5,               5,               6,               6,               6,               5,               6,               6
 |  to_enum(LOC,5):              4,              3,              2,              1,              0,              1,              5,              4,              3,               2,               1,               2,               5,               4,               3,               3,               2,               3,               5,               5,               4,               4,               3,               4,               6,               5,               5,               5,               4,               5,               7,               6,               6,               6,               5,               6
 |  to_enum(LOC,6):              5,              4,              3,              2,              1,              0,              6,              5,              4,               3,               2,               1,               6,               5,               4,               3,               3,               2,               6,               5,               5,               4,               4,               3,               7,               6,               5,               5,               5,               4,               8,               7,               6,               6,               6,               5
 |  to_enum(LOC,7):              1,              2,              3,              4,              5,              6,              0,              1,              2,               3,               4,               5,               1,               2,               3,               4,               5,               6,               2,               3,               3,               4,               5,               6,               3,               4,               4,               5,               5,               6,               4,               5,               5,               5,               6,               7
 |  to_enum(LOC,8):              2,              1,              2,              3,              4,              5,              1,              0,              1,               2,               3,               4,               2,               1,               2,               3,               4,               5,               3,               2,               3,               3,               4,               5,               4,               3,               4,               4,               5,               5,               5,               4,               5,               5,               5,               6
 |  to_enum(LOC,9):              3,              2,              1,              2,              3,              4,              2,              1,              0,               1,               2,               3,               3,               2,               1,               2,               3,               4,               3,               3,               2,               3,               3,               4,               4,               4,               3,               4,               4,               5,               5,               5,               4,               5,               5,               5
 | to_enum(LOC,10):              4,              3,              2,              1,              2,              3,              3,              2,              1,               0,               1,               2,               4,               3,               2,               1,               2,               3,               4,               3,               3,               2,               3,               3,               5,               4,               4,               3,               4,               4,               5,               5,               5,               4,               5,               5
 | to_enum(LOC,11):              5,              4,              3,              2,              1,              2,              4,              3,              2,               1,               0,               1,               5,               4,               3,               2,               1,               2,               5,               4,               3,               3,               2,               3,               5,               5,               4,               4,               3,               4,               6,               5,               5,               5,               4,               5
 | to_enum(LOC,12):              6,              5,              4,              3,              2,              1,              5,              4,              3,               2,               1,               0,               6,               5,               4,               3,               2,               1,               6,               5,               4,               3,               3,               2,               6,               5,               5,               4,               4,               3,               7,               6,               5,               5,               5,               4
 | to_enum(LOC,13):              2,              3,              3,              4,              5,              6,              1,              2,              3,               4,               5,               6,               0,               1,               2,               3,               4,               5,               1,               2,               3,               4,               5,               6,               2,               3,               3,               4,               5,               6,               3,               4,               4,               5,               5,               6
 | to_enum(LOC,14):              3,              2,              3,              3,              4,              5,              2,              1,              2,               3,               4,               5,               1,               0,               1,               2,               3,               4,               2,               1,               2,               3,               4,               5,               3,               2,               3,               3,               4,               5,               4,               3,               4,               4,               5,               5
 | to_enum(LOC,15):              3,              3,              2,              3,              3,              4,              3,              2,              1,               2,               3,               4,               2,               1,               0,               1,               2,               3,               3,               2,               1,               2,               3,               4,               3,               3,               2,               3,               3,               4,               4,               4,               3,               4,               4,               5
 | to_enum(LOC,16):              4,              3,              3,              2,              3,              3,              4,              3,              2,               1,               2,               3,               3,               2,               1,               0,               1,               2,               4,               3,               2,               1,               2,               3,               4,               3,               3,               2,               3,               3,               5,               4,               4,               3,               4,               4
 | to_enum(LOC,17):              5,              4,              3,              3,              2,              3,              5,              4,              3,               2,               1,               2,               4,               3,               2,               1,               0,               1,               5,               4,               3,               2,               1,               2,               5,               4,               3,               3,               2,               3,               5,               5,               4,               4,               3,               4
 | to_enum(LOC,18):              6,              5,              4,              3,              3,              2,              6,              5,              4,               3,               2,               1,               5,               4,               3,               2,               1,               0,               6,               5,               4,               3,               2,               1,               6,               5,               4,               3,               3,               2,               6,               5,               5,               4,               4,               3
 | to_enum(LOC,19):              3,              4,              4,              5,              5,              6,              2,              3,              3,               4,               5,               6,               1,               2,               3,               4,               5,               6,               0,               1,               2,               3,               4,               5,               1,               2,               3,               4,               5,               6,               2,               3,               3,               4,               5,               6
 | to_enum(LOC,20):              4,              3,              4,              4,              5,              5,              3,              2,              3,               3,               4,               5,               2,               1,               2,               3,               4,               5,               1,               0,               1,               2,               3,               4,               2,               1,               2,               3,               4,               5,               3,               2,               3,               3,               4,               5
 | to_enum(LOC,21):              4,              4,              3,              4,              4,              5,              3,              3,              2,               3,               3,               4,               3,               2,               1,               2,               3,               4,               2,               1,               0,               1,               2,               3,               3,               2,               1,               2,               3,               4,               3,               3,               2,               3,               3,               4
 | to_enum(LOC,22):              5,              4,              4,              3,              4,              4,              4,              3,              3,               2,               3,               3,               4,               3,               2,               1,               2,               3,               3,               2,               1,               0,               1,               2,               4,               3,               2,               1,               2,               3,               4,               3,               3,               2,               3,               3
 | to_enum(LOC,23):              5,              5,              4,              4,              3,              4,              5,              4,              3,               3,               2,               3,               5,               4,               3,               2,               1,               2,               4,               3,               2,               1,               0,               1,               5,               4,               3,               2,               1,               2,               5,               4,               3,               3,               2,               3
 | to_enum(LOC,24):              6,              5,              5,              4,              4,              3,              6,              5,              4,               3,               3,               2,               6,               5,               4,               3,               2,               1,               5,               4,               3,               2,               1,               0,               6,               5,               4,               3,               2,               1,               6,               5,               4,               3,               3,               2
 | to_enum(LOC,25):              4,              5,              5,              5,              6,              7,              3,              4,              4,               5,               5,               6,               2,               3,               3,               4,               5,               6,               1,               2,               3,               4,               5,               6,               0,               1,               2,               3,               4,               5,               1,               2,               3,               4,               5,               6
 | to_enum(LOC,26):              5,              4,              5,              5,              5,              6,              4,              3,              4,               4,               5,               5,               3,               2,               3,               3,               4,               5,               2,               1,               2,               3,               4,               5,               1,               0,               1,               2,               3,               4,               2,               1,               2,               3,               4,               5
 | to_enum(LOC,27):              5,              5,              4,              5,              5,              5,              4,              4,              3,               4,               4,               5,               3,               3,               2,               3,               3,               4,               3,               2,               1,               2,               3,               4,               2,               1,               0,               1,               2,               3,               3,               2,               1,               2,               3,               4
 | to_enum(LOC,28):              5,              5,              5,              4,              5,              5,              5,              4,              4,               3,               4,               4,               4,               3,               3,               2,               3,               3,               4,               3,               2,               1,               2,               3,               3,               2,               1,               0,               1,               2,               4,               3,               2,               1,               2,               3
 | to_enum(LOC,29):              6,              5,              5,              5,              4,              5,              5,              5,              4,               4,               3,               4,               5,               4,               3,               3,               2,               3,               5,               4,               3,               2,               1,               2,               4,               3,               2,               1,               0,               1,               5,               4,               3,               2,               1,               2
 | to_enum(LOC,30):              7,              6,              5,              5,              5,              4,              6,              5,              5,               4,               4,               3,               6,               5,               4,               3,               3,               2,               6,               5,               4,               3,               2,               1,               5,               4,               3,               2,               1,               0,               6,               5,               4,               3,               2,               1
 | to_enum(LOC,31):              5,              6,              6,              6,              7,              8,              4,              5,              5,               5,               6,               7,               3,               4,               4,               5,               5,               6,               2,               3,               3,               4,               5,               6,               1,               2,               3,               4,               5,               6,               0,               1,               2,               3,               4,               5
 | to_enum(LOC,32):              6,              5,              6,              6,              6,              7,              5,              4,              5,               5,               5,               6,               4,               3,               4,               4,               5,               5,               3,               2,               3,               3,               4,               5,               2,               1,               2,               3,               4,               5,               1,               0,               1,               2,               3,               4
 | to_enum(LOC,33):              6,              6,              5,              6,              6,              6,              5,              5,              4,               5,               5,               5,               4,               4,               3,               4,               4,               5,               3,               3,               2,               3,               3,               4,               3,               2,               1,               2,               3,               4,               2,               1,               0,               1,               2,               3
 | to_enum(LOC,34):              6,              6,              6,              5,              6,              6,              5,              5,              5,               4,               5,               5,               5,               4,               4,               3,               4,               4,               4,               3,               3,               2,               3,               3,               4,               3,               2,               1,               2,               3,               3,               2,               1,               0,               1,               2
 | to_enum(LOC,35):              7,              6,              6,              6,              5,              6,              6,              5,              5,               5,               4,               5,               5,               5,               4,               4,               3,               4,               5,               4,               3,               3,               2,               3,               5,               4,               3,               2,               1,               2,               4,               3,               2,               1,               0,               1
 | to_enum(LOC,36):              8,              7,              6,              6,              6,              5,              7,              6,              5,               5,               5,               4,               6,               5,               5,               4,               4,               3,               6,               5,               4,               3,               3,               2,               6,               5,               4,               3,               2,               1,               5,               4,               3,               2,               1,               0
 |];
n = 6;
wild = [0, 0, 1, 0, 0, 0, 1, 4, 1, 1, 1, 1, 1, 3, 4, 3, 1, 2, 1, 2, 2, 2, 1, 0, 1, 1, 1, 1, 1, 1, 0, 4, 1, 1, 2, 0];
move = 3;
link = 10;
mind = 3;
cost = [0, -1, 2, -1, -1, -1, 1, 3, 5, 7, 9, 11, 2, 5, 8, 11, 14, 17, 3, 7, 11, 15, 1, -1, 4, 9, 14, 1, 6, 11, -1, 11, 17, 5, 11, -1];
opcost = 9;
budget = 23;